p cnf 56 61
-2 46 -47 -49 -53 -54 0 
-3 39 46 -47 -49 -53 -54 0 
-4 8 31 46 -47 -49 -53 -54 0 
-5 11 46 -47 -49 -53 -54 0 
-6 26 47 -46 -49 -53 -54 0 
-7 43 47 -46 -49 -53 -54 0 
-8 4 31 46 -47 -49 -53 -54 0 
-9 48 -50 -55 0 
-10 37 46 -47 -49 -53 -54 0 
-11 5 49 -46 -47 -53 -54 0 
-12 -13 14 28 33 49 -46 -47 -53 -54 0 
-11 5 -14 13 28 33 -13 14 49 -46 -47 -53 -54 0 
-14 13 28 33 -10 37 46 -47 -49 -53 -54 0 
-14 13 28 33 -15 46 -47 -49 -53 -54 0 
-16 21 25 50 -48 -55 0 
-17 24 -18 22 50 -48 -55 0 
-19 42 50 -48 -55 0 
-20 -21 16 25 -22 18 50 -48 -55 0 
-23 -24 17 -18 22 -25 16 21 50 -48 -55 0 
-26 6 -17 24 50 -48 -55 0 
-27 -28 13 14 33 -17 24 51 -52 -56 0 
-23 -29 50 -48 -55 0 
-30 -29 50 -48 -55 0 
-31 4 8 -21 16 25 -32 50 -48 -55 0 
-21 16 25 -33 13 14 28 50 -48 -55 0 
-34 50 -48 -55 0 
-35 52 -51 -56 0 
-34 50 -48 -55 0 
-18 22 50 -48 -55 0 
-3 39 48 -50 -55 0 
-21 16 25 50 -48 -55 0 
-18 22 -17 24 50 -48 -55 0 
-36 38 -29 51 -52 -56 0 
-12 -37 10 49 -46 -47 -53 -54 0 
-38 36 49 -46 -47 -53 -54 0 
-2 -4 8 31 46 -47 -49 -53 -54 0 
-2 -39 3 46 -47 -49 -53 -54 0 
-2 -23 -9 46 -47 -49 -53 -54 0 
-40 -2 -41 45 46 -47 -49 -53 -54 0 
-2 -40 46 -47 -49 -53 -54 0 
-21 16 25 -17 24 50 -48 -55 0 
-21 16 25 -32 50 -48 -55 0 
-12 -38 36 49 -46 -47 -53 -54 0 
-36 38 -29 53 -46 -47 -49 -54 0 
-36 38 -29 54 -46 -47 -49 -53 0 
-11 5 -29 49 -46 -47 -53 -54 0 
-36 38 -29 46 -47 -49 -53 -54 0 
-37 10 -38 36 49 -46 -47 -53 -54 0 
-39 3 46 -47 -49 -53 -54 0 
-43 7 50 -48 -55 0 
-23 -21 16 25 -33 13 14 28 50 -48 -55 0 
-40 -21 16 25 -33 13 14 28 50 -48 -55 0 
-44 50 -48 -55 0 
-38 36 50 -48 -55 0 
-21 16 25 -44 55 -48 -50 0 
-17 24 50 -48 -55 0 
-38 36 48 -50 -55 0 
-36 38 -29 48 -50 -55 0 
-39 3 56 -51 -52 0 
-45 41 48 -50 -55 0 
-36 38 -29 50 -48 -55 0 
